Kpoints from vasprun.xml
0
Gamma
11 11 1
