Sc1 I2                                  
   1.00000000000000     
     3.9397260971582808    0.0000000000000000    0.0000000000000000
    -1.9698620010246037    3.4119021342113967    0.0000000000000000
     0.0000000000000000    0.0000000000000000   35.3342437744000009
   Sc   I 
     2     4
Direct
  0.3333329809999981  0.6666669789999986  0.3543823610055435
  0.6666669800000022  0.3333329330000012  0.5607239538315758
 -0.0000000000000000  0.0000000000000000  0.3014217193975056
 -0.0000000000000000  0.0000000000000000  0.4071579438158757
  0.3333329809999981  0.6666669789999986  0.5079347968603820
  0.3333329809999981  0.6666669789999986  0.6136688070891158
 
  0.00000000E+00  0.00000000E+00  0.00000000E+00
  0.00000000E+00  0.00000000E+00  0.00000000E+00
  0.00000000E+00  0.00000000E+00  0.00000000E+00
  0.00000000E+00  0.00000000E+00  0.00000000E+00
  0.00000000E+00  0.00000000E+00  0.00000000E+00
  0.00000000E+00  0.00000000E+00  0.00000000E+00
