num_bands =   56  ! set to NBANDS by VASP
num_wann =    44   #  number of wannier bands
dis_win_min   =  -17  #-6.6964  #-11.0
dis_win_max   = 5
dis_froz_min  = -9   # -6.69  #-10.3     # energy window
dis_froz_max  = 1.5

#dis_num_iter  =  50000

num_print_cycles  = 20
#num_dump_cycles   = 100
num_iter      =  200
#num_iter          = 6000
#conv_tol          =  1E-10
#conv_window       = 2

guiding_centres = .true.

spinors = .true.

write_hr=.true.
#hr_plot = .true.

# projections
begin projections
Sc : dxy; dxz; dyz; dx2-y2; dz2
I : px; py; pz
end projections

#Bandstructure plot
#restart         =  plot
bands_plot      =  true
#fermi_energy = 7.9099
#fermi_surface_plot = true
begin kpoint_path
G 0.0 0.0 0.0 K 0.33 0.33 0.0
K 0.33 0.33 0.0 M 0.0 0.5 0.0
M 0.0 0.5 0.0 K' -0.33 0.67 0.0
K' -0.33 0.67 0.0 G 0.0 0.0 0.0
end kpoint_path
bands_num_points 101
bands_plot_format gnuplot xmgrace


begin unit_cell_cart
     3.9397261     0.0000000     0.0000000
    -1.9698620     3.4119021     0.0000000
     0.0000000     0.0000000    35.3342438
end unit_cell_cart

begin atoms_cart
Sc      -0.0000013     2.2746025    12.5218327
Sc       1.9698654     1.1372993    19.8127569
I        0.0000000     0.0000000    10.6505085
I        0.0000000     0.0000000    14.3866180
I       -0.0000013     2.2746025    17.9474919
I       -0.0000013     2.2746025    21.6835232
end atoms_cart

mp_grid =    11    11     1

begin kpoints
      0.000000000000      0.000000000000      0.000000000000
      0.090909090909      0.000000000000      0.000000000000
      0.181818181818      0.000000000000      0.000000000000
      0.272727272727      0.000000000000      0.000000000000
      0.363636363636      0.000000000000      0.000000000000
      0.454545454545      0.000000000000      0.000000000000
     -0.454545454545      0.000000000000      0.000000000000
     -0.363636363636      0.000000000000      0.000000000000
     -0.272727272727      0.000000000000      0.000000000000
     -0.181818181818      0.000000000000      0.000000000000
     -0.090909090909      0.000000000000      0.000000000000
      0.090909090909      0.090909090909      0.000000000000
      0.181818181818      0.090909090909      0.000000000000
      0.272727272727      0.090909090909      0.000000000000
      0.363636363636      0.090909090909      0.000000000000
      0.454545454545      0.090909090909      0.000000000000
     -0.454545454545      0.090909090909      0.000000000000
     -0.363636363636      0.090909090909      0.000000000000
     -0.272727272727      0.090909090909      0.000000000000
      0.181818181818      0.181818181818      0.000000000000
      0.272727272727      0.181818181818      0.000000000000
      0.363636363636      0.181818181818      0.000000000000
      0.454545454545      0.181818181818      0.000000000000
     -0.454545454545      0.181818181818      0.000000000000
     -0.090909090909      0.181818181818      0.000000000000
      0.272727272727      0.272727272727      0.000000000000
      0.363636363636      0.272727272727      0.000000000000
     -0.181818181818      0.272727272727      0.000000000000
     -0.090909090909      0.272727272727      0.000000000000
     -0.272727272727      0.363636363636      0.000000000000
     -0.181818181818      0.363636363636      0.000000000000
     -0.090909090909      0.363636363636      0.000000000000
     -0.363636363636      0.454545454545      0.000000000000
     -0.272727272727      0.454545454545      0.000000000000
     -0.181818181818      0.454545454545      0.000000000000
     -0.090909090909      0.454545454545      0.000000000000
     -0.454545454545     -0.454545454545      0.000000000000
     -0.363636363636     -0.454545454545      0.000000000000
     -0.272727272727     -0.454545454545      0.000000000000
     -0.181818181818     -0.454545454545      0.000000000000
     -0.363636363636     -0.363636363636      0.000000000000
     -0.090909090909      0.090909090909      0.000000000000
      0.000000000000     -0.090909090909      0.000000000000
     -0.181818181818      0.181818181818      0.000000000000
      0.000000000000     -0.181818181818      0.000000000000
     -0.272727272727      0.272727272727      0.000000000000
      0.000000000000     -0.272727272727      0.000000000000
     -0.363636363636      0.363636363636      0.000000000000
      0.000000000000     -0.363636363636      0.000000000000
     -0.454545454545      0.454545454545      0.000000000000
      0.000000000000     -0.454545454545      0.000000000000
      0.454545454545     -0.454545454545      0.000000000000
      0.000000000000      0.454545454545      0.000000000000
      0.363636363636     -0.363636363636      0.000000000000
      0.000000000000      0.363636363636      0.000000000000
      0.272727272727     -0.272727272727      0.000000000000
      0.000000000000      0.272727272727      0.000000000000
      0.181818181818     -0.181818181818      0.000000000000
      0.000000000000      0.181818181818      0.000000000000
      0.090909090909     -0.090909090909      0.000000000000
      0.000000000000      0.090909090909      0.000000000000
     -0.181818181818      0.090909090909      0.000000000000
      0.090909090909     -0.181818181818      0.000000000000
     -0.272727272727      0.181818181818      0.000000000000
      0.090909090909     -0.272727272727      0.000000000000
     -0.363636363636      0.272727272727      0.000000000000
      0.090909090909     -0.363636363636      0.000000000000
     -0.454545454545      0.363636363636      0.000000000000
      0.090909090909     -0.454545454545      0.000000000000
     -0.545454545455      0.454545454545      0.000000000000
      0.090909090909     -0.545454545455      0.000000000000
      0.363636363636     -0.454545454545      0.000000000000
      0.090909090909      0.363636363636      0.000000000000
      0.272727272727     -0.363636363636      0.000000000000
      0.090909090909      0.272727272727      0.000000000000
      0.181818181818     -0.272727272727      0.000000000000
      0.090909090909      0.181818181818      0.000000000000
     -0.363636363636      0.181818181818      0.000000000000
      0.181818181818     -0.363636363636      0.000000000000
     -0.454545454545      0.272727272727      0.000000000000
      0.181818181818     -0.454545454545      0.000000000000
     -0.545454545455      0.363636363636      0.000000000000
      0.181818181818     -0.545454545455      0.000000000000
     -0.636363636364      0.454545454545      0.000000000000
      0.181818181818     -0.636363636364      0.000000000000
      0.272727272727     -0.454545454545      0.000000000000
      0.181818181818      0.272727272727      0.000000000000
     -0.090909090909     -0.090909090909      0.000000000000
      0.181818181818     -0.090909090909      0.000000000000
     -0.545454545455      0.272727272727      0.000000000000
      0.272727272727     -0.545454545455      0.000000000000
     -0.636363636364      0.363636363636      0.000000000000
      0.272727272727     -0.636363636364      0.000000000000
     -0.090909090909     -0.181818181818      0.000000000000
      0.272727272727     -0.090909090909      0.000000000000
     -0.181818181818     -0.090909090909      0.000000000000
      0.272727272727     -0.181818181818      0.000000000000
     -0.090909090909     -0.272727272727      0.000000000000
      0.363636363636     -0.090909090909      0.000000000000
     -0.181818181818     -0.181818181818      0.000000000000
      0.363636363636     -0.181818181818      0.000000000000
     -0.272727272727     -0.090909090909      0.000000000000
      0.363636363636     -0.272727272727      0.000000000000
     -0.090909090909     -0.363636363636      0.000000000000
      0.454545454545     -0.090909090909      0.000000000000
     -0.181818181818     -0.272727272727      0.000000000000
      0.454545454545     -0.181818181818      0.000000000000
     -0.272727272727     -0.181818181818      0.000000000000
      0.454545454545     -0.272727272727      0.000000000000
     -0.363636363636     -0.090909090909      0.000000000000
      0.454545454545     -0.363636363636      0.000000000000
      0.909090909091     -0.454545454545      0.000000000000
     -0.454545454545      0.909090909091      0.000000000000
      0.818181818182     -0.363636363636      0.000000000000
     -0.454545454545      0.818181818182      0.000000000000
      0.727272727273     -0.272727272727      0.000000000000
     -0.454545454545      0.727272727273      0.000000000000
      0.636363636364     -0.181818181818      0.000000000000
     -0.454545454545      0.636363636364      0.000000000000
      0.727272727273     -0.363636363636      0.000000000000
     -0.363636363636      0.727272727273      0.000000000000
end kpoints
